0001111000000000
0001111000000000
0001111111100000
0001111111111000
0001111111111000
0001111111111000
0000111111111100
0000000000111100
0000000001111000
0000000001111000
0000000011111000
0000000011110000
0000000111110000
0000000111100000
0000000111100000
0000000011000000
